qbf_easy_train/easy_312_SAT.qdimacs
p cnf 19 44
a 9 2 6 0
e 1 3 4 5 7 8 10 11 12 13 14 15 16 17 18 19 0
2 3 -4 0
-2 -3 -4 0
2 -3 4 0
-2 3 4 0
1 -4 -5 0
-1 4 -5 0
1 4 5 0
-1 -4 5 0
-6 -7 -8 0
6 7 -8 0
-6 7 8 0
6 -7 8 0
5 -8 -9 0
-5 8 -9 0
5 8 9 0
-5 -8 9 0
-12 10 0
-12 11 0
-10 -11 12 0
13 12 0
13 3 0
-12 -3 -13 0
-7 13 -14 0
7 -13 -14 0
-7 -13 14 0
7 13 14 0
1 -15 -16 0
-1 15 -16 0
1 15 16 0
-1 -15 16 0
-17 -16 0
-17 11 0
16 -11 17 0
-18 -14 0
-18 -17 0
14 17 18 0
19 -9 0
19 18 0
9 -18 -19 0
-11 8 -12 7 -9 6 0
-15 -13 4 -19 -3 7 12 0
18 -8 3 0
1 -8 13 -12 -18 0
19 0
