sat_easy_train/easy_312_SAT.dimacs
p cnf 117 390
4 2 0
4 3 0
-2 -3 -4 0
-1 4 -5 0
1 -4 -5 0
-1 -4 5 0
1 4 5 0
8 -6 0
8 -7 0
6 7 -8 0
-9 -5 0
-9 -8 0
5 8 9 0
12 10 0
12 11 0
-10 -11 -12 0
15 13 0
15 14 0
-13 -14 -15 0
16 12 0
16 15 0
-12 -15 -16 0
17 -16 0
17 2 0
16 -2 -17 0
9 -17 -18 0
-9 17 -18 0
9 17 18 0
-9 -17 18 0
19 -2 -20 0
-19 2 -20 0
19 2 20 0
-19 -2 20 0
7 -21 0
-7 -21 0
8 -6 -22 0
-8 6 -22 0
8 6 22 0
-8 -6 22 0
23 21 0
23 -22 0
-21 22 -23 0
24 -23 0
24 -17 0
23 17 -24 0
25 -17 0
25 24 0
17 -24 -25 0
26 -20 0
26 25 0
20 -25 -26 0
-26 27 -28 0
26 -27 -28 0
-26 -27 28 0
26 27 28 0
29 28 0
29 -22 0
-28 22 -29 0
-30 -18 0
-30 29 0
18 -29 30 0
31 19 0
31 -21 0
-19 21 -31 0
30 -31 -32 0
-30 31 -32 0
30 31 32 0
-30 -31 32 0
6 3 -33 0
-6 -3 -33 0
6 -3 33 0
-6 3 33 0
-34 23 0
-34 33 0
-23 -33 34 0
32 34 -35 0
-32 -34 -35 0
32 -34 35 0
-32 34 35 0
10 -4 -36 0
-10 4 -36 0
10 4 36 0
-10 -4 36 0
-37 -38 -39 0
37 38 -39 0
-37 38 39 0
37 -38 39 0
-40 2 0
-40 -38 0
-2 38 40 0
-41 -39 0
-41 40 0
39 -40 41 0
-43 41 0
-43 42 0
-41 -42 43 0
44 -7 -45 0
-44 7 -45 0
44 7 45 0
-44 -7 45 0
46 -43 0
46 -45 0
43 45 -46 0
36 46 -47 0
-36 -46 -47 0
36 -46 47 0
-36 46 47 0
-48 39 0
-48 -17 0
-39 17 48 0
-47 -48 -49 0
47 48 -49 0
-47 48 49 0
47 -48 49 0
-50 35 0
-50 49 0
-35 -49 50 0
51 39 0
51 13 0
-39 -13 -51 0
-52 -51 0
-52 16 0
51 -16 52 0
53 15 0
53 17 0
-15 -17 -53 0
-54 -40 0
-54 37 0
40 -37 54 0
54 37 -55 0
-54 -37 -55 0
54 -37 55 0
-54 37 55 0
56 -53 0
56 -55 0
53 55 -56 0
-8 19 -57 0
8 -19 -57 0
-8 -19 57 0
8 19 57 0
-58 -57 0
-58 53 0
57 -53 58 0
59 -33 0
59 -7 0
33 7 -59 0
-60 -59 0
-60 55 0
59 -55 60 0
62 -45 0
62 -41 0
45 41 -62 0
-61 62 -63 0
61 -62 -63 0
-61 -62 63 0
61 62 63 0
42 -11 -64 0
-42 11 -64 0
42 11 64 0
-42 -11 64 0
-40 64 -65 0
40 -64 -65 0
-40 -64 65 0
40 64 65 0
-66 -65 0
-66 -14 0
65 14 66 0
-67 -63 0
-67 66 0
63 -66 67 0
68 60 0
68 67 0
-60 -67 -68 0
-58 -68 -69 0
58 68 -69 0
-58 68 69 0
58 -68 69 0
70 56 0
70 -69 0
-56 69 -70 0
71 52 0
71 -70 0
-52 70 -71 0
50 -71 -72 0
-50 71 -72 0
50 71 72 0
-50 -71 72 0
73 13 0
73 10 0
-13 -10 -73 0
-12 -59 -74 0
12 59 -74 0
-12 59 74 0
12 -59 74 0
53 -41 -75 0
-53 41 -75 0
53 41 75 0
-53 -41 75 0
-76 -74 0
-76 75 0
74 -75 76 0
77 3 0
77 -33 0
-3 33 -77 0
-78 76 0
-78 -77 0
-76 77 78 0
-40 -14 -79 0
40 14 -79 0
-40 14 79 0
40 -14 79 0
-80 -10 0
-80 40 0
10 -40 80 0
-81 4 0
-81 80 0
-4 -80 81 0
-79 -81 -82 0
79 81 -82 0
-79 81 82 0
79 -81 82 0
-78 -82 -83 0
78 82 -83 0
-78 82 83 0
78 -82 83 0
-84 -73 0
-84 -83 0
73 83 84 0
85 -72 0
85 -84 0
72 84 -85 0
86 -10 0
86 -42 0
10 42 -86 0
86 11 -87 0
-86 -11 -87 0
86 -11 87 0
-86 11 87 0
-88 -86 0
-88 -87 0
86 87 88 0
89 54 0
89 1 0
-54 -1 -89 0
90 6 0
90 -40 0
-6 40 -90 0
-91 -90 0
-91 37 0
90 -37 91 0
-92 91 0
-92 37 0
-91 -37 92 0
-3 40 -93 0
3 -40 -93 0
-3 -40 93 0
3 40 93 0
-94 2 0
-94 93 0
-2 -93 94 0
95 94 0
95 -87 0
-94 87 -95 0
-96 94 0
-96 95 0
-94 -95 96 0
-92 96 -97 0
92 -96 -97 0
-92 -96 97 0
92 96 97 0
-98 89 0
-98 -97 0
-89 97 98 0
-88 98 -99 0
88 -98 -99 0
-88 -98 99 0
88 98 99 0
-8 -51 -100 0
8 51 -100 0
-8 51 100 0
8 -51 100 0
101 -43 0
101 94 0
43 -94 -101 0
102 -25 0
102 -11 0
25 11 -102 0
103 -57 0
103 102 0
57 -102 -103 0
24 -103 -104 0
-24 103 -104 0
24 103 104 0
-24 -103 104 0
-55 -20 -105 0
55 20 -105 0
-55 20 105 0
55 -20 105 0
106 37 0
106 64 0
-37 -64 -106 0
-107 106 0
-107 -7 0
-106 7 107 0
-108 -27 0
-108 102 0
27 -102 108 0
109 107 0
109 108 0
-107 -108 -109 0
-110 -33 0
-110 8 0
33 -8 110 0
111 109 0
111 -110 0
-109 110 -111 0
-105 -111 -112 0
105 111 -112 0
-105 111 112 0
105 -111 112 0
113 104 0
113 112 0
-104 -112 -113 0
-101 113 -114 0
101 -113 -114 0
-101 -113 114 0
101 113 114 0
-100 114 -115 0
100 -114 -115 0
-100 -114 115 0
100 114 115 0
-99 115 -116 0
99 -115 -116 0
-99 -115 116 0
99 115 116 0
117 85 0
117 -116 0
-85 116 -117 0
75 -20 0
-82 71 73 8 -3 27 0
49 -78 -52 0
-44 -15 -94 5 0
-76 93 60 29 56 0
10 -32 0
-37 -34 -52 116 103 0
-108 85 98 -103 -48 0
-111 11 25 44 113 -117 0
-16 83 -54 103 0
29 -28 114 -57 0
-48 84 0
23 -77 116 0
84 -98 0
-73 58 105 47 110 34 0
-49 9 0
109 -52 -13 54 -116 16 0
104 -76 -58 -42 111 0
-99 77 -84 -107 -20 0
-33 77 -58 -34 0
34 -5 -64 100 -69 -73 0
-116 -72 85 67 -81 0
-108 23 48 57 0
100 -74 61 -83 29 0
-102 -87 -59 3 111 -63 0
91 2 -51 0
-67 -76 -99 0
-31 -47 110 0
89 -65 -70 -106 62 114 0
105 72 -66 -35 -87 0
28 6 10 0
114 17 97 -36 25 -78 0
-46 97 39 0
-89 -19 58 0
91 71 -75 -98 -47 -96 0
-66 77 0
106 -66 35 0
84 -115 -101 80 0
32 -29 69 0
107 -97 38 -15 53 0
-30 -40 89 0
-18 51 -43 0
-104 -34 -32 -115 -44 0
13 -81 0
76 77 -28 0
36 43 -29 65 0
57 -71 77 -18 -6 20 0
10 113 -39 0
60 43 33 -53 0
-68 109 0
-93 29 84 0
117 0
